myproject/instances/20nodes/rnd3_20.tsp
NAME : rnd3_20.tsp
TYPE : TSP
DIMENSION : 20
EDGE_WEIGHT_TYPE : EUC_2D
NODE_COORD_SECTION
1 760 807
2 929 7
3 131 946
4 198 5
5 122 359
6 966 399
7 674 76
8 741 141
9 922 901
10 864 541
11 6 727
12 349 530
13 94 64
14 516 967
15 95 229
16 807 536
17 65 143
18 923 77
19 252 278
20 929 584
