myproject/instances/20nodes/rnd3_20.opt.tour
NAME : rnd3_20.tsp.tsp.opt.tour
TYPE : TOUR
DIMENSION : 20
TOUR_SECTION
1
9
20
10
16
6
18
2
8
7
4
13
17
15
5
19
12
11
3
14
-1